
Gurobi 10.0.1 (linux64) logging started Sun Nov 26 15:55:18 2023

Set parameter LogFile to value "ArtificialInstance/ExperimentV2/S2T3K3/BaSp/gurobi91.txt"
Gurobi Optimizer version 10.0.1 build v10.0.1rc0 (linux64)

CPU model: AMD EPYC 7H12 64-Core Processor, instruction set [SSE2|AVX|AVX2]
Thread count: 128 physical cores, 128 logical processors, using up to 32 threads

Academic license 656792 - for non-commercial use only - registered to b.___@student.vu.nl
Optimize a model with 2050 rows, 3120 columns and 10400 nonzeros
Model fingerprint: 0x5b92c7d2
Variable types: 0 continuous, 3120 integer (3120 binary)
Coefficient statistics:
  Matrix range     [1e+00, 1e+00]
  Objective range  [2e+00, 2e+01]
  Bounds range     [1e+00, 1e+00]
  RHS range        [1e+00, 1e+00]
Found heuristic solution: objective 641.0328958
Presolve time: 0.01s
Presolved: 2050 rows, 3120 columns, 10400 nonzeros
Variable types: 0 continuous, 3120 integer (3120 binary)

Root relaxation: objective 4.509344e+01, 1602 iterations, 0.03 seconds (0.03 work units)

    Nodes    |    Current Node    |     Objective Bounds      |     Work
 Expl Unexpl |  Obj  Depth IntInf | Incumbent    BestBd   Gap | It/Node Time

     0     0   45.09344    0  338  641.03290   45.09344  93.0%     -    0s
H    0     0                     259.5039145   45.09344  82.6%     -    0s
H    0     0                      84.4959175   45.09344  46.6%     -    0s
     0     0   52.04359    0  335   84.49592   52.04359  38.4%     -    0s
H    0     0                      63.9352800   52.04359  18.6%     -    0s
     0     0   55.20128    0  551   63.93528   55.20128  13.7%     -    0s
     0     0   55.20128    0  552   63.93528   55.20128  13.7%     -    0s
H    0     0                      62.8447394   55.20128  12.2%     -    0s
     0     0   56.90390    0  441   62.84474   56.90390  9.45%     -    0s
H    0     0                      62.0832275   56.90390  8.34%     -    0s
     0     0   57.01782    0  356   62.08323   57.01782  8.16%     -    0s
     0     0   57.07958    0  637   62.08323   57.07958  8.06%     -    0s
     0     0   57.07958    0  638   62.08323   57.07958  8.06%     -    0s
     0     0   57.40391    0  640   62.08323   57.40391  7.54%     -    0s
     0     0   57.40391    0  320   62.08323   57.40391  7.54%     -    0s
     0     0   57.40391    0  505   62.08323   57.40391  7.54%     -    0s
     0     0   57.40391    0  522   62.08323   57.40391  7.54%     -    0s
     0     0   57.41282    0  497   62.08323   57.41282  7.52%     -    0s
     0     0   58.82963    0  480   62.08323   58.82963  5.24%     -    0s
     0     0   58.86669    0  580   62.08323   58.86669  5.18%     -    0s
     0     0   59.06485    0  612   62.08323   59.06485  4.86%     -    0s
     0     0   59.06485    0  610   62.08323   59.06485  4.86%     -    0s
     0     0   59.08019    0  558   62.08323   59.08019  4.84%     -    0s
     0     0   59.67235    0  594   62.08323   59.67235  3.88%     -    1s
     0     0   59.72503    0  498   62.08323   59.72503  3.80%     -    1s
     0     0   59.74466    0  542   62.08323   59.74466  3.77%     -    1s
     0     0   59.75123    0  539   62.08323   59.75123  3.76%     -    1s
     0     0   59.75123    0  539   62.08323   59.75123  3.76%     -    1s
     0     0   59.93646    0  646   62.08323   59.93646  3.46%     -    1s
     0     0   59.93646    0  315   62.08323   59.93646  3.46%     -    1s
     0     0   59.93646    0  465   62.08323   59.93646  3.46%     -    1s
     0     0   59.93646    0  575   62.08323   59.93646  3.46%     -    1s
     0     0   59.93646    0  578   62.08323   59.93646  3.46%     -    1s
     0     0   59.93646    0  483   62.08323   59.93646  3.46%     -    1s
     0     0   59.93646    0  595   62.08323   59.93646  3.46%     -    1s
     0     0   59.93646    0  594   62.08323   59.93646  3.46%     -    1s
     0     0   59.93646    0  594   62.08323   59.93646  3.46%     -    1s
     0     0   60.01582    0  616   62.08323   60.01582  3.33%     -    1s
     0     0   60.05913    0  610   62.08323   60.05913  3.26%     -    1s
     0     0   60.05913    0  613   62.08323   60.05913  3.26%     -    1s
     0     0   60.06155    0  630   62.08323   60.06155  3.26%     -    1s
     0     0   60.06155    0  628   62.08323   60.06155  3.26%     -    1s
     0     0   62.08323    0  632   62.08323   62.08323  0.00%     -    1s

Cutting planes:
  Gomory: 16
  Zero half: 94
  RLT: 35

Explored 1 nodes (14409 simplex iterations) in 1.68 seconds (0.89 work units)
Thread count was 32 (of 128 available processors)

Solution count 6: 62.0832 62.8447 63.9353 ... 641.033

Optimal solution found (tolerance 1.00e-04)
Best objective 6.208322751840e+01, best bound 6.208322751840e+01, gap 0.0000%
